# ABINIT -INPUT FILE
# UO2 96 ATOMES

# Distribution des processeurs
#npkpt 2 npband 8 npfft 8    # 128 processeurs
#npkpt 2 npband 16 npfft 8   # 256 processeurs
#npkpt 2 npband 16 npfft 16  # 512 processeurs
 npkpt 2 npband 16 npfft 32  # 1024 processeurs
np_slk 64

# Algorithmes pour les fonctions d'onde
paral_kgb 1
wfoptalg 1
nline 6
fftalg 402
#fftalg 302  ! To use FFTW instead of ABINIT FFT

# Donnees de la base d'ondes planes
ecut 6. 
pawecutdg 10.

# Parametres du cycle auto-coherent
toldfe 1.d-5
nstep 28
#diemac 500.

# Points K et symetries
nkpt 1
kpt 0.5 0.5 0.5
kptopt 0
istwfk *1
nsym 0
maxnsym 2048
chksymbreak 0

# Bandes electroniques
nsppol 2
nband 448
nbdbuf 20
occopt 3
tsmear 0.0005 hartree

# Cellule de simulation
acell 3*11. angstrom
rprim 1. 0. 0. 0. 1. 0. 0. 0. 1. 
natom 96
ntypat 2
typat 32*1 64*2
znucl 92. 8.
chkprim 0

# Activation/desactvation des I/O
optforces 2
optstress 1
prtwf 0
prtden 0
prteig 0
timopt 0

#Positions des atomes
xred
   0.00000000000000   0.00000000000000   0.00000000000000
   0.25000000000000   0.25000000000000   0.00000000000000
   0.25000000000000   0.00000000000000   0.25000000000000
   0.00000000000000   0.25000000000000   0.25000000000000
   0.00000000000000   0.00000000000000   0.50000000000000
   0.25000000000000   0.25000000000000   0.50000000000000
   0.25000000000000   0.00000000000000   0.75000000000000
   0.00000000000000   0.25000000000000   0.75000000000000
   0.00000000000000   0.50000000000000   0.00000000000000
   0.25000000000000   0.75000000000000   0.00000000000000
   0.25000000000000   0.50000000000000   0.25000000000000
   0.00000000000000   0.75000000000000   0.25000000000000
   0.00000000000000   0.50000000000000   0.50000000000000
   0.25000000000000   0.75000000000000   0.50000000000000
   0.25000000000000   0.50000000000000   0.75000000000000
   0.00000000000000   0.75000000000000   0.75000000000000
   0.50000000000000   0.00000000000000   0.00000000000000
   0.75000000000000   0.25000000000000   0.00000000000000
   0.75000000000000   0.00000000000000   0.25000000000000
   0.50000000000000   0.25000000000000   0.25000000000000
   0.50000000000000   0.00000000000000   0.50000000000000
   0.75000000000000   0.25000000000000   0.50000000000000
   0.75000000000000   0.00000000000000   0.75000000000000
   0.50000000000000   0.25000000000000   0.75000000000000
   0.50000000000000   0.50000000000000   0.00000000000000
   0.75000000000000   0.75000000000000   0.00000000000000
   0.75000000000000   0.50000000000000   0.25000000000000
   0.50000000000000   0.75000000000000   0.25000000000000
   0.50000000000000   0.50000000000000   0.50000000000000
   0.75000000000000   0.75000000000000   0.50000000000000
   0.75000000000000   0.50000000000000   0.75000000000000
   0.50000000000000   0.75000000000000   0.75000000000000
   0.12500000000000   0.12500000000000   0.12500000000000
   0.12500000000000   0.37500000000000   0.12500000000000
   0.37500000000000   0.12500000000000   0.12500000000000
   0.37500000000000   0.37500000000000   0.12500000000000
   0.12500000000000   0.12500000000000   0.37500000000000
   0.12500000000000   0.37500000000000   0.37500000000000
   0.37500000000000   0.12500000000000   0.37500000000000
   0.37500000000000   0.37500000000000   0.37500000000000
   0.12500000000000   0.12500000000000   0.62500000000000
   0.12500000000000   0.37500000000000   0.62500000000000
   0.37500000000000   0.12500000000000   0.62500000000000
   0.37500000000000   0.37500000000000   0.62500000000000
   0.12500000000000   0.12500000000000   0.87500000000000
   0.12500000000000   0.37500000000000   0.87500000000000
   0.37500000000000   0.12500000000000   0.87500000000000
   0.37500000000000   0.37500000000000   0.87500000000000
   0.12500000000000   0.62500000000000   0.12500000000000
   0.12500000000000   0.87500000000000   0.12500000000000
   0.37500000000000   0.62500000000000   0.12500000000000
   0.37500000000000   0.87500000000000   0.12500000000000
   0.12500000000000   0.62500000000000   0.37500000000000
   0.12500000000000   0.87500000000000   0.37500000000000
   0.37500000000000   0.62500000000000   0.37500000000000
   0.37500000000000   0.87500000000000   0.37500000000000
   0.12500000000000   0.62500000000000   0.62500000000000
   0.12500000000000   0.87500000000000   0.62500000000000
   0.37500000000000   0.62500000000000   0.62500000000000
   0.37500000000000   0.87500000000000   0.62500000000000
   0.12500000000000   0.62500000000000   0.87500000000000
   0.12500000000000   0.87500000000000   0.87500000000000
   0.37500000000000   0.62500000000000   0.87500000000000
   0.37500000000000   0.87500000000000   0.87500000000000
   0.62500000000000   0.12500000000000   0.12500000000000
   0.62500000000000   0.37500000000000   0.12500000000000
   0.87500000000000   0.12500000000000   0.12500000000000
   0.87500000000000   0.37500000000000   0.12500000000000
   0.62500000000000   0.12500000000000   0.37500000000000
   0.62500000000000   0.37500000000000   0.37500000000000
   0.87500000000000   0.12500000000000   0.37500000000000
   0.87500000000000   0.37500000000000   0.37500000000000
   0.62500000000000   0.12500000000000   0.62500000000000
   0.62500000000000   0.37500000000000   0.62500000000000
   0.87500000000000   0.12500000000000   0.62500000000000
   0.87500000000000   0.37500000000000   0.62500000000000
   0.62500000000000   0.12500000000000   0.87500000000000
   0.62500000000000   0.37500000000000   0.87500000000000
   0.87500000000000   0.12500000000000   0.87500000000000
   0.87500000000000   0.37500000000000   0.87500000000000
   0.62500000000000   0.62500000000000   0.12500000000000
   0.62500000000000   0.87500000000000   0.12500000000000
   0.87500000000000   0.62500000000000   0.12500000000000
   0.87500000000000   0.87500000000000   0.12500000000000
   0.62500000000000   0.62500000000000   0.37500000000000
   0.62500000000000   0.87500000000000   0.37500000000000
   0.87500000000000   0.62500000000000   0.37500000000000
   0.87500000000000   0.87500000000000   0.37500000000000
   0.62500000000000   0.62500000000000   0.62500000000000
   0.62500000000000   0.87500000000000   0.62500000000000
   0.87500000000000   0.62500000000000   0.62500000000000
   0.87500000000000   0.87500000000000   0.62500000000000
   0.62500000000000   0.62500000000000   0.87500000000000
   0.62500000000000   0.87500000000000   0.87500000000000
   0.87500000000000   0.62500000000000   0.87500000000000
   0.87500000000000   0.87500000000000   0.87500000000000

# Aimantations initiales
spinat
   2*0 1 2*0 1 2*0 1 2*0 1 2*0 1 2*0 1 2*0 1 2*0 1
   2*0 1 2*0 1 2*0 1 2*0 1 2*0 1 2*0 1 2*0 1 2*0 1
   2*0 1 2*0 1 2*0 1 2*0 1 2*0 1 2*0 1 2*0 1 2*0 1
   2*0 1 2*0 1 2*0 1 2*0 1 2*0 1 2*0 1 2*0 1 2*0 1
   192*0

