###########################################
# GS + Band Structure for MgB2 with L-DOSes
###########################################
ndtset  2
prtdos  3

#Dataset 1: GS calculation
ngkpt1   18 18 18
nshiftk1 1
#shiftk1  0.0 0.0 0.5    # This choice preserves the hexagonal symmetry of the grid,
shiftk1  0.0 0.0 0.0    # This choice preserves the hexagonal symmetry of the grid,
occopt1  4              # Marzari smearing
tsmear1  0.03
tolvrs1  1.0d-10

#Dataset 2: Band structure calculation.
iscf2  -2
getden2 1
kptopt2 -5
tolwfr2  1.0d-8
ndivsm2  10    
               
kptbounds2     
           0.0 0.0 0.0   # Gamma
           0.5 0.0 0.0   # M
           1/3 1/3 0.0   # K
           0.0 0.0 0.0   # Gamma
           0.0 0.0 0.5   # A
           0.5 0.0 0.5   # L
           #1/3 1/3 0.5  # H

#COMMON INPUT DATA###########################################################
ecut    14.0  
nband   8

# MgB2 lattice structure
ntypat  2
znucl   12 5
natom   3
typat   1*1 2*2

acell   2*3.086  3.523 Angstrom

rprim   0.866025403784439  0.5  0.0
       -0.866025403784439  0.5  0.0
        0.0                0.0  1.0

# Atomic positions
xred
 0.0000000000E+00  0.0000000000E+00  0.0 #Mg
 1/3               2/3               0.5 #B
 2/3               1/3               0.5 #B
