
########################
### GLOBAL VARIABLES ###
########################
ndtset   2
acell      1.0    1.0    1.0

xred  
    0.0    0.0    0.0
    0.25    0.25    0.25

typat   1 1

ntypat   1
rprim  
    6.3285005521    0.0    3.6537614973
    2.1095001840    5.9665675402    3.6537614973
    0.0    0.0    7.3075229946

natom   2
znucl   14

ecut   6
nband   8
timopt   -1
iomode   3
istwfk   *1

#################
### DATASET 1 ###
#################
kptopt1   1
shiftk1   0 0 0

ngkpt1   8 8 8

nshiftk1   1
tolvrs1   1e-06

#################
### DATASET 2 ###
#################
kptopt2   -2
kptbounds2  
    0.5    0.0    0.0
    0.0    0.0    0.0
    0.0    0.5    0.5

iscf2   -2
ndivsm2   6
tolwfr2   1e-12
getden2   -1
