# Crystalline silicon 
# Template for converge study on ngkpt
# 1) GS
# 2) generation of the KSS file on a symmetric k-mesh
# 3) generation of the KSS file on a shifted k-mesh that breaks the symmetry of the BZ sampling
# 4) SCR calculation using the KSS generated in the second dataset 
# 5) BS run with Haydock method (no coupling)
#
ndtset 3

# Definition of the k-point grid
kptopt 1             # Option for the automatic generation of k points,
ngkpt  4 4 4  
nshiftk 1
shiftk  0.0 0.0 0.0  # Gamma-centered k-mesh is 

# Dataset1: self-consistent calculation
tolvrs1 1.0d-8

# Dataset2: calculation of the kss file on the shifted k-mesh to break the symmetry.
iscf2    -2 # non self-consistency, read previous density file
getden2   1
tolwfr2  1.0d-8  
nband2    15            # Here we can reduce the number of bands since this KSS file is only used in the BS run.
nbdbuf2    5            # The last five states are excluded from the converge check
chksymbreak2 0          # To skip the check on the k-mesh.
shiftk2    0.11 0.21 0.31  # This shift breaks the symmetry of the k-mesh.

# BSE run with Haydock iterative method (only resonant + W + v)
optdriver3 99              # BS calculation
getwfk3    2               # Read the KSS generated on the shifted k-mesh.
chksymbreak3 0          # To skip the check on the k-mesh.
shiftk3    0.11 0.21 0.31  # This shift breaks the symmetry of the k-mesh.

bs_calctype3       1
mbpt_sciss3          0.8 eV  # Scissors operator used to correct the KS band structure.
bs_exchange_term3  1       # Exchange term included.
bs_coulomb_term3   21      # Use model W and full W_GG.
mdf_epsinf         12.0
bs_coupling3       0       # Tamm-Dancoff approximation.

bs_loband3 2  
nband3     8
ecuteps3   3

bs_freq_mesh3 0 6 0.02 eV  # Frequency mesh.

bs_algorithm3        2      # Haydock method.
bs_haydock_niter3   100     # Max number of iterations for the Haydock method.
bs_haydock_tol3     0.05 0  # Tolerance for the iterative method.
zcut3               0.1 eV  # complex shift to avoid divergences in the continued fraction.

ecutwfn3 6.0               # Cutoff for the wavefunction.
inclvkb3 2

# VARIABLES COMMON TO THE DIFFERENT DATASETS

# Definition of the unit cell: fcc
acell 3*10.217         # This is equivalent to   10.217 10.217 10.217
rprim  0.0  0.5  0.5   # FCC primitive vectors (to be scaled by acell)
       0.5  0.0  0.5
       0.5  0.5  0.0

# Definition of the atom types
ntypat 1         # There is only one type of atom
znucl 14         # The keyword "zatnum" refers to the atomic number of the
                 # possible type(s) of atom. The pseudopotential(s)
                 # mentioned in the "files" file must correspond
                 # to the type(s) of atom. Here, the only type is Silicon.

# Definition of the atoms
natom 2           # There are two atoms
typat 1 1         # They both are of type 1, that is, Silicon.
xred              # Reduced coordinate of atoms
   0.0  0.0  0.0
   0.25 0.25 0.25

# Definition of the planewave basis set 
ecut 6         # Maximal kinetic energy cut-off, in Hartree

istwfk *1
nstep  50      # Maximal number of SCF cycles
diemac 12.0
