# ABINIT -INPUT FILE
# OR 107 ATOMES

# Distribution des processeurs
 npkpt 1 npband 13 npfft 10     # 130 processeurs
#npkpt 1 npband 26 npfft 10     # 260 processeurs
#npkpt 1 npband 65 npfft 8      # 520 processeurs
#npkpt 1 npband 65 npfft 16     # 1040 processeurs

# Algorithmes pour les fonctions d'onde 
paral_kgb 1
wfoptalg 1
fftalg 402
#fftalg 302  ! To use FFTW instead of ABINIT FFT

# Donnees de la base d'ondes planes
ecut 10.
pawecutdg 20.

# Parametres du cycle auto-coherent
toldfe 1.d-5
nstep 20

# Points K et symetries
nkpt 1
kpt 3*0.
kptopt 0
istwfk *1
nsym 0
chksymbreak 0

# Bandes electroniques
nband 650
occopt 3
tsmear 0.002 hartree
nbdbuf 20

# Cellule de simulation
acell  3*23.01
rprim 1. 0. 0. 0. 1. 0. 0. 0. 1.
natom 107
ntypat 1
typat 107*1
znucl 79.
chkprim 0

# Activation/desactvation des I/O
optforces 2
optstress 1
prtwf 0
prtden 0
prteig 0
timopt 0

#Positions des atomes
xred
        0.0000000000E+00  1.6326095981E-01  1.6326095981E-01
        1.6326095981E-01  0.0000000000E+00  1.6326095981E-01
        1.6326095981E-01  1.6326095981E-01  0.0000000000E+00
        0.0000000000E+00  1.6641506689E-01  5.0000000000E-01
        1.6641506689E-01  0.0000000000E+00  5.0000000000E-01
        1.6596912386E-01  1.6596912386E-01  3.3213568011E-01
        0.0000000000E+00  0.0000000000E+00  3.3251308046E-01
        0.0000000000E+00  1.6326095981E-01  8.3673904019E-01
        1.6326095981E-01  0.0000000000E+00  8.3673904019E-01
        1.6596912386E-01  1.6596912386E-01  6.6786431989E-01
        0.0000000000E+00  0.0000000000E+00  6.6748691954E-01
        0.0000000000E+00  5.0000000000E-01  1.6641506689E-01
        1.6596912386E-01  3.3213568011E-01  1.6596912386E-01
        1.6641506689E-01  5.0000000000E-01  0.0000000000E+00
        0.0000000000E+00  3.3251308046E-01  0.0000000000E+00
        0.0000000000E+00  5.0000000000E-01  5.0000000000E-01
        1.6649623194E-01  3.3291657817E-01  5.0000000000E-01
        1.6649623194E-01  5.0000000000E-01  3.3291657817E-01
        0.0000000000E+00  3.3314040855E-01  3.3314040855E-01
        0.0000000000E+00  5.0000000000E-01  8.3358493311E-01
        1.6596912386E-01  3.3213568011E-01  8.3403087614E-01
        1.6649623194E-01  5.0000000000E-01  6.6708342183E-01
        0.0000000000E+00  3.3314040855E-01  6.6685959145E-01
        0.0000000000E+00  8.3673904019E-01  1.6326095981E-01
        1.6596912386E-01  6.6786431989E-01  1.6596912386E-01
        1.6326095981E-01  8.3673904019E-01  0.0000000000E+00
        0.0000000000E+00  6.6748691954E-01  0.0000000000E+00
        0.0000000000E+00  8.3358493311E-01  5.0000000000E-01
        1.6649623194E-01  6.6708342183E-01  5.0000000000E-01
        1.6596912386E-01  8.3403087614E-01  3.3213568011E-01
        0.0000000000E+00  6.6685959145E-01  3.3314040855E-01
        0.0000000000E+00  8.3673904019E-01  8.3673904019E-01
        1.6596912386E-01  6.6786431989E-01  8.3403087614E-01
        1.6596912386E-01  8.3403087614E-01  6.6786431989E-01
        0.0000000000E+00  6.6685959145E-01  6.6685959145E-01
        3.3213568011E-01  1.6596912386E-01  1.6596912386E-01
        5.0000000000E-01  0.0000000000E+00  1.6641506689E-01
        5.0000000000E-01  1.6641506689E-01  0.0000000000E+00
        3.3251308046E-01  0.0000000000E+00  0.0000000000E+00
        3.3291657817E-01  1.6649623194E-01  5.0000000000E-01
        5.0000000000E-01  0.0000000000E+00  5.0000000000E-01
        5.0000000000E-01  1.6649623194E-01  3.3291657817E-01
        3.3314040855E-01  0.0000000000E+00  3.3314040855E-01
        3.3213568011E-01  1.6596912386E-01  8.3403087614E-01
        5.0000000000E-01  0.0000000000E+00  8.3358493311E-01
        5.0000000000E-01  1.6649623194E-01  6.6708342183E-01
        3.3314040855E-01  0.0000000000E+00  6.6685959145E-01
        3.3291657817E-01  5.0000000000E-01  1.6649623194E-01
        5.0000000000E-01  3.3291657817E-01  1.6649623194E-01
        5.0000000000E-01  5.0000000000E-01  0.0000000000E+00
        3.3314040855E-01  3.3314040855E-01  0.0000000000E+00
        3.3316116420E-01  5.0000000000E-01  5.0000000000E-01
        5.0000000000E-01  3.3316116420E-01  5.0000000000E-01
        5.0000000000E-01  5.0000000000E-01  3.3316116420E-01
        3.3302887829E-01  3.3302887829E-01  3.3302887829E-01
        3.3291657817E-01  5.0000000000E-01  8.3350376806E-01
        5.0000000000E-01  3.3291657817E-01  8.3350376806E-01
        5.0000000000E-01  5.0000000000E-01  6.6683883580E-01
        3.3302887829E-01  3.3302887829E-01  6.6697112171E-01
        3.3213568011E-01  8.3403087614E-01  1.6596912386E-01
        5.0000000000E-01  6.6708342183E-01  1.6649623194E-01
        5.0000000000E-01  8.3358493311E-01  0.0000000000E+00
        3.3314040855E-01  6.6685959145E-01  0.0000000000E+00
        3.3291657817E-01  8.3350376806E-01  5.0000000000E-01
        5.0000000000E-01  6.6683883580E-01  5.0000000000E-01
        5.0000000000E-01  8.3350376806E-01  3.3291657817E-01
        3.3302887829E-01  6.6697112171E-01  3.3302887829E-01
        3.3213568011E-01  8.3403087614E-01  8.3403087614E-01
        5.0000000000E-01  6.6708342183E-01  8.3350376806E-01
        5.0000000000E-01  8.3350376806E-01  6.6708342183E-01
        3.3302887829E-01  6.6697112171E-01  6.6697112171E-01
        6.6786431989E-01  1.6596912386E-01  1.6596912386E-01
        8.3673904019E-01  0.0000000000E+00  1.6326095981E-01
        8.3673904019E-01  1.6326095981E-01  0.0000000000E+00
        6.6748691954E-01  0.0000000000E+00  0.0000000000E+00
        6.6708342183E-01  1.6649623194E-01  5.0000000000E-01
        8.3358493311E-01  0.0000000000E+00  5.0000000000E-01
        8.3403087614E-01  1.6596912386E-01  3.3213568011E-01
        6.6685959145E-01  0.0000000000E+00  3.3314040855E-01
        6.6786431989E-01  1.6596912386E-01  8.3403087614E-01
        8.3673904019E-01  0.0000000000E+00  8.3673904019E-01
        8.3403087614E-01  1.6596912386E-01  6.6786431989E-01
        6.6685959145E-01  0.0000000000E+00  6.6685959145E-01
        6.6708342183E-01  5.0000000000E-01  1.6649623194E-01
        8.3403087614E-01  3.3213568011E-01  1.6596912386E-01
        8.3358493311E-01  5.0000000000E-01  0.0000000000E+00
        6.6685959145E-01  3.3314040855E-01  0.0000000000E+00
        6.6683883580E-01  5.0000000000E-01  5.0000000000E-01
        8.3350376806E-01  3.3291657817E-01  5.0000000000E-01
        8.3350376806E-01  5.0000000000E-01  3.3291657817E-01
        6.6697112171E-01  3.3302887829E-01  3.3302887829E-01
        6.6708342183E-01  5.0000000000E-01  8.3350376806E-01
        8.3403087614E-01  3.3213568011E-01  8.3403087614E-01
        8.3350376806E-01  5.0000000000E-01  6.6708342183E-01
        6.6697112171E-01  3.3302887829E-01  6.6697112171E-01
        6.6786431989E-01  8.3403087614E-01  1.6596912386E-01
        8.3403087614E-01  6.6786431989E-01  1.6596912386E-01
        8.3673904019E-01  8.3673904019E-01  0.0000000000E+00
        6.6685959145E-01  6.6685959145E-01  0.0000000000E+00
        6.6708342183E-01  8.3350376806E-01  5.0000000000E-01
        8.3350376806E-01  6.6708342183E-01  5.0000000000E-01
        8.3403087614E-01  8.3403087614E-01  3.3213568011E-01
        6.6697112171E-01  6.6697112171E-01  3.3302887829E-01
        6.6786431989E-01  8.3403087614E-01  8.3403087614E-01
        8.3403087614E-01  6.6786431989E-01  8.3403087614E-01
        8.3403087614E-01  8.3403087614E-01  6.6786431989E-01
        6.6697112171E-01  6.6697112171E-01  6.6697112171E-01
